
m = 10;

n = 10;

Amin = 40;

Amax = 50;

B = 1920;

lambda = 20.00;

c = 
[[10,2,5,2,2,7,5,5,8,8],
[10,5,7,8,8,6,3,4,4,4],
[2,7,7,6,6,8,8,2,6,4],
[2,3,2,3,4,3,8,5,4,3],
[9,3,4,3,8,9,7,7,2,8],
[7,9,2,10,4,4,7,8,2,9],
[9,3,9,9,4,2,8,9,3,10],
[8,9,10,2,10,5,9,7,10,7],
[2,6,6,2,5,6,2,8,2,3],
[7,9,4,5,5,4,3,3,2,2]];
